
/* Objective Function */

Min: 622 XA1 + 614 XA2 + 630 XA3 + 641 XB1 + 645 XB2 + 649 XB3 + 0 XA4 + 0 XB4;

/* Constraints */

XA1 + XA2 + XA3 + XA4 = 100;
XB1 + XB2 + XB3 + XB4 = 120;
XA1 + XB1 = 80;
XA2 + XB2 = 60;
XA3 + XB3 = 70;
XA4 + XB4 = 10;

